/*********************************************
 * OPL 12.6.0.0 Data
 * Author: Adrian Rodriguez Bazaga, Pau Rodriguez Esmerats
 * Creation Date: 06/12/2017 at 23:04:59
 *********************************************/

nNurses=236;
maxConsec=2;
maxPresence=7;
maxHours=5;
minHours=1;
hours=24;
demand= [43 42 61 63 42 61 63 42 41 20 3 1 4 2 4 2 3 2 1 1 35 71 36 56  ];
